data/lp_files/pEFS/34_1.lp
\ Model foo
\ LP format - for model browsing. Use MPS format to capture full model detail.
Minimize
  z
Subject To
 allocateEach[1]: x[1,1] + x[2,1] = 1
 allocateEach[2]: x[1,2] + x[2,2] = 1
 allocateEach[3]: x[1,3] + x[2,3] = 1
 allocateEach[4]: x[1,4] + x[2,4] = 1
 allocateEach[5]: x[1,5] + x[2,5] = 1
 allocateEach[6]: x[1,6] + x[2,6] = 1
 allocateEach[7]: x[1,7] + x[2,7] = 1
 allocateEach[8]: x[1,8] + x[2,8] = 1
 allocateEach[9]: x[1,9] + x[2,9] = 1
 allocateEach[10]: x[1,10] + x[2,10] = 1
 allocateEach[11]: x[1,11] + x[2,11] = 1
 allocateEach[12]: x[1,12] + x[2,12] = 1
 allocateEach[13]: x[1,13] + x[2,13] = 1
 allocateEach[14]: x[1,14] + x[2,14] = 1
 allocateAllCash: cashProportion[1] + cashProportion[2] = 1
 findWorstP[1,2]: z + 0.0147121566550441 cashProportion[1]
   - 0.0147121566550441 cashProportion[2] + 0.109855673743214 x[1,1]
   + 0.0467110973797649 x[1,2] + 0.141575083491489 x[1,3]
   + 0.0178899824925336 x[1,4] + 0.0120492563004811 x[1,5]
   + 0.00910682496947228 x[1,6] + 0.0892292301128423 x[1,7]
   + 0.0893322152094276 x[1,8] + 0.1282605817186742 x[1,9]
   + 0.0716776272233747 x[1,10] + 0.0674699504200321 x[1,11]
   + 0.1116799811684395 x[1,12] + 0.0103279339718409 x[1,13]
   + 0.08012240514337 x[1,14] - 0.109855673743214 x[2,1]
   - 0.0467110973797649 x[2,2] - 0.141575083491489 x[2,3]
   - 0.0178899824925336 x[2,4] - 0.0120492563004811 x[2,5]
   - 0.00910682496947228 x[2,6] - 0.0892292301128423 x[2,7]
   - 0.0893322152094276 x[2,8] - 0.1282605817186742 x[2,9]
   - 0.0716776272233747 x[2,10] - 0.0674699504200321 x[2,11]
   - 0.1116799811684395 x[2,12] - 0.0103279339718409 x[2,13]
   - 0.08012240514337 x[2,14] >= 0
 findWorstP[2,1]: z - 0.0146087769531935 cashProportion[1]
   + 0.0146087769531935 cashProportion[2] - 0.1252848711505873 x[1,1]
   - 0.0940220884707532 x[1,2] - 0.0485157482615555 x[1,3]
   - 0.1271255770466896 x[1,4] - 0.0999240343598434 x[1,5]
   - 0.0118038917781803 x[1,6] - 0.0534681236486881 x[1,7]
   - 0.0119791971016187 x[1,8] - 0.0254630982294162 x[1,9]
   - 0.1090545199555893 x[1,10] - 0.0520364635072752 x[1,11]
   - 0.1295214164670134 x[1,12] - 0.0402910068369076 x[1,13]
   - 0.0569011862326886 x[1,14] + 0.1252848711505873 x[2,1]
   + 0.0940220884707532 x[2,2] + 0.0485157482615555 x[2,3]
   + 0.1271255770466896 x[2,4] + 0.0999240343598434 x[2,5]
   + 0.0118038917781803 x[2,6] + 0.0534681236486881 x[2,7]
   + 0.0119791971016187 x[2,8] + 0.0254630982294162 x[2,9]
   + 0.1090545199555893 x[2,10] + 0.0520364635072752 x[2,11]
   + 0.1295214164670134 x[2,12] + 0.0402910068369076 x[2,13]
   + 0.0569011862326886 x[2,14] >= 0
Bounds
 z <= 1
 -infinity <= cashProportion[1] <= 1
 -infinity <= cashProportion[2] <= 1
Binaries
 x[1,1] x[1,2] x[1,3] x[1,4] x[1,5] x[1,6] x[1,7] x[1,8] x[1,9] x[1,10]
 x[1,11] x[1,12] x[1,13] x[1,14] x[2,1] x[2,2] x[2,3] x[2,4] x[2,5] x[2,6]
 x[2,7] x[2,8] x[2,9] x[2,10] x[2,11] x[2,12] x[2,13] x[2,14]
End
