data/mps_files/pEFS/34_1.mps
NAME foo
ROWS
 N  OBJ
 E  allocateEach[1]
 E  allocateEach[2]
 E  allocateEach[3]
 E  allocateEach[4]
 E  allocateEach[5]
 E  allocateEach[6]
 E  allocateEach[7]
 E  allocateEach[8]
 E  allocateEach[9]
 E  allocateEach[10]
 E  allocateEach[11]
 E  allocateEach[12]
 E  allocateEach[13]
 E  allocateEach[14]
 E  allocateAllCash
 G  findWorstP[1,2]
 G  findWorstP[2,1]
COLUMNS
    z         OBJ       1
    z         findWorstP[1,2]  1
    z         findWorstP[2,1]  1
    cashProportion[1]  allocateAllCash  1
    cashProportion[1]  findWorstP[1,2]  1.4712156655044065e-02
    cashProportion[1]  findWorstP[2,1]  -1.4608776953193479e-02
    cashProportion[2]  allocateAllCash  1
    cashProportion[2]  findWorstP[1,2]  -1.4712156655044065e-02
    cashProportion[2]  findWorstP[2,1]  1.4608776953193479e-02
    MARKER    'MARKER'                 'INTORG'
    x[1,1]    allocateEach[1]  1
    x[1,1]    findWorstP[1,2]  1.0985567374321403e-01
    x[1,1]    findWorstP[2,1]  -1.2528487115058728e-01
    x[1,2]    allocateEach[2]  1
    x[1,2]    findWorstP[1,2]  4.6711097379764907e-02
    x[1,2]    findWorstP[2,1]  -9.4022088470753218e-02
    x[1,3]    allocateEach[3]  1
    x[1,3]    findWorstP[1,2]  1.4157508349148903e-01
    x[1,3]    findWorstP[2,1]  -4.8515748261555539e-02
    x[1,4]    allocateEach[4]  1
    x[1,4]    findWorstP[1,2]  1.7889982492533582e-02
    x[1,4]    findWorstP[2,1]  -1.2712557704668964e-01
    x[1,5]    allocateEach[5]  1
    x[1,5]    findWorstP[1,2]  1.2049256300481089e-02
    x[1,5]    findWorstP[2,1]  -0.0999240343598434
    x[1,6]    allocateEach[6]  1
    x[1,6]    findWorstP[1,2]  9.1068249694722762e-03
    x[1,6]    findWorstP[2,1]  -1.1803891778180330e-02
    x[1,7]    allocateEach[7]  1
    x[1,7]    findWorstP[1,2]  8.9229230112842256e-02
    x[1,7]    findWorstP[2,1]  -5.3468123648688130e-02
    x[1,8]    allocateEach[8]  1
    x[1,8]    findWorstP[1,2]  8.9332215209427551e-02
    x[1,8]    findWorstP[2,1]  -1.1979197101618653e-02
    x[1,9]    allocateEach[9]  1
    x[1,9]    findWorstP[1,2]  1.2826058171867416e-01
    x[1,9]    findWorstP[2,1]  -2.5463098229416233e-02
    x[1,10]   allocateEach[10]  1
    x[1,10]   findWorstP[1,2]  7.1677627223374688e-02
    x[1,10]   findWorstP[2,1]  -1.0905451995558932e-01
    x[1,11]   allocateEach[11]  1
    x[1,11]   findWorstP[1,2]  6.7469950420032079e-02
    x[1,11]   findWorstP[2,1]  -5.2036463507275171e-02
    x[1,12]   allocateEach[12]  1
    x[1,12]   findWorstP[1,2]  1.1167998116843950e-01
    x[1,12]   findWorstP[2,1]  -1.2952141646701337e-01
    x[1,13]   allocateEach[13]  1
    x[1,13]   findWorstP[1,2]  1.0327933971840933e-02
    x[1,13]   findWorstP[2,1]  -4.0291006836907610e-02
    x[1,14]   allocateEach[14]  1
    x[1,14]   findWorstP[1,2]  8.0122405143369976e-02
    x[1,14]   findWorstP[2,1]  -0.0569011862326886
    x[2,1]    allocateEach[1]  1
    x[2,1]    findWorstP[1,2]  -1.0985567374321403e-01
    x[2,1]    findWorstP[2,1]  1.2528487115058728e-01
    x[2,2]    allocateEach[2]  1
    x[2,2]    findWorstP[1,2]  -4.6711097379764907e-02
    x[2,2]    findWorstP[2,1]  9.4022088470753218e-02
    x[2,3]    allocateEach[3]  1
    x[2,3]    findWorstP[1,2]  -1.4157508349148903e-01
    x[2,3]    findWorstP[2,1]  4.8515748261555539e-02
    x[2,4]    allocateEach[4]  1
    x[2,4]    findWorstP[1,2]  -1.7889982492533582e-02
    x[2,4]    findWorstP[2,1]  1.2712557704668964e-01
    x[2,5]    allocateEach[5]  1
    x[2,5]    findWorstP[1,2]  -1.2049256300481089e-02
    x[2,5]    findWorstP[2,1]  0.0999240343598434
    x[2,6]    allocateEach[6]  1
    x[2,6]    findWorstP[1,2]  -9.1068249694722762e-03
    x[2,6]    findWorstP[2,1]  1.1803891778180330e-02
    x[2,7]    allocateEach[7]  1
    x[2,7]    findWorstP[1,2]  -8.9229230112842256e-02
    x[2,7]    findWorstP[2,1]  5.3468123648688130e-02
    x[2,8]    allocateEach[8]  1
    x[2,8]    findWorstP[1,2]  -8.9332215209427551e-02
    x[2,8]    findWorstP[2,1]  1.1979197101618653e-02
    x[2,9]    allocateEach[9]  1
    x[2,9]    findWorstP[1,2]  -1.2826058171867416e-01
    x[2,9]    findWorstP[2,1]  2.5463098229416233e-02
    x[2,10]   allocateEach[10]  1
    x[2,10]   findWorstP[1,2]  -7.1677627223374688e-02
    x[2,10]   findWorstP[2,1]  1.0905451995558932e-01
    x[2,11]   allocateEach[11]  1
    x[2,11]   findWorstP[1,2]  -6.7469950420032079e-02
    x[2,11]   findWorstP[2,1]  5.2036463507275171e-02
    x[2,12]   allocateEach[12]  1
    x[2,12]   findWorstP[1,2]  -1.1167998116843950e-01
    x[2,12]   findWorstP[2,1]  1.2952141646701337e-01
    x[2,13]   allocateEach[13]  1
    x[2,13]   findWorstP[1,2]  -1.0327933971840933e-02
    x[2,13]   findWorstP[2,1]  4.0291006836907610e-02
    x[2,14]   allocateEach[14]  1
    x[2,14]   findWorstP[1,2]  -8.0122405143369976e-02
    x[2,14]   findWorstP[2,1]  0.0569011862326886
    MARKER    'MARKER'                 'INTEND'
RHS
    RHS1      allocateEach[1]  1
    RHS1      allocateEach[2]  1
    RHS1      allocateEach[3]  1
    RHS1      allocateEach[4]  1
    RHS1      allocateEach[5]  1
    RHS1      allocateEach[6]  1
    RHS1      allocateEach[7]  1
    RHS1      allocateEach[8]  1
    RHS1      allocateEach[9]  1
    RHS1      allocateEach[10]  1
    RHS1      allocateEach[11]  1
    RHS1      allocateEach[12]  1
    RHS1      allocateEach[13]  1
    RHS1      allocateEach[14]  1
    RHS1      allocateAllCash  1
BOUNDS
 UP BND1      z         1
 MI BND1      cashProportion[1]
 UP BND1      cashProportion[1]  1
 MI BND1      cashProportion[2]
 UP BND1      cashProportion[2]  1
 BV BND1      x[1,1]  
 BV BND1      x[1,2]  
 BV BND1      x[1,3]  
 BV BND1      x[1,4]  
 BV BND1      x[1,5]  
 BV BND1      x[1,6]  
 BV BND1      x[1,7]  
 BV BND1      x[1,8]  
 BV BND1      x[1,9]  
 BV BND1      x[1,10] 
 BV BND1      x[1,11] 
 BV BND1      x[1,12] 
 BV BND1      x[1,13] 
 BV BND1      x[1,14] 
 BV BND1      x[2,1]  
 BV BND1      x[2,2]  
 BV BND1      x[2,3]  
 BV BND1      x[2,4]  
 BV BND1      x[2,5]  
 BV BND1      x[2,6]  
 BV BND1      x[2,7]  
 BV BND1      x[2,8]  
 BV BND1      x[2,9]  
 BV BND1      x[2,10] 
 BV BND1      x[2,11] 
 BV BND1      x[2,12] 
 BV BND1      x[2,13] 
 BV BND1      x[2,14] 
ENDATA
